\Problem name: IloCplex

Minimize
 obj: 76.1577310586391 id53 + 61.6116872029975 id54 + 78.7146746166177 id55
      + 72.1110255092798 id56 + 80.6225774829855 id57 + 66.6033032213869 id58
      + 70.7106781186548 id59 + 78.1024967590665 id60 + 67.0820393249937 id61
      + 63.2455532033676 id62 + 67.0522184569608 id63 + 64.7765389628066 id64
      + 76.1577310586391 id65 + 70.7106781186548 id66 + 78.587530817554 id67
      + 82.4621125123532 id68 + 80.6225774829855 id69 + 90.3548559846121 id70
      + 80.0999375780031 id71 + 70.1141925718324 id72 + 90 id73 + 70 id74
      + 90.0888450364417 id75 + 70.1141925718324 id76 + 90.5538513813742 id77
      + id78 + 267.081005811564 id2354 + 332.702593081866 id2355
      + 220.564982651149 id2356 + 277.305305170252 id2357
      + 191.57412638742 id2358 + 341.245219680356 id2359
      + 321.773174925578 id2360 + 233.013011890492 id2361
      + 218.712630403959 id2362 + 249.325801636343 id2363
      + 248.80881722327 id2364 + 255.941532072225 id2365
      + 214.764563438171 id2366 + 233.536030662364 id2367
      + 257.536484696754 id2368 + 264.054992758704 id2369
      + 323.66193026899 id2370 + 156.732085537232 id2371
      + 175.216516815201 id2372 + 233.711154284029 id2373
      + 248.467314956029 id2374 + 229.621557106889 id2375
      + 227.49034196287 id2376 + 165.744313740369 id2377
      + 272.799061835982 id2378 + 208.416450868328 id2379
      + 192.78074043305 id2380 + 217.896856640168 id2381
      + 223.061335593575 id2382 + 233.005747621501 id2383
      + 207.214118722635 id2384 + 150.405553771265 id2385
      + 194.806114447478 id2386 + 221.29068044741 id2387
      + 186.595805778079 id2388 + 210.378228220081 id2389
      + 175.488980915502 id2390 + 233.032667340176 id2391
      + 175.103306625406 id2392 + 209.19639848523 id2393
      + 168.836882502642 id2394 + 155.914261769975 id2395
      + 216.613287649182 id2396 + 146.129160653466 id2397
      + 208.701614461344 id2398 + 146.176702054038 id2399
      + 194.476344579244 id2400 + 153.658804819195 id2401
      + 201.208141039718 id2402 + 160.087265351971 id2403
      + 146.190572349581 id2404 + 142.560975582275 id2405
      + 174.787347733582 id2406 + 163.549327627823 id2407
      + 152.841008904895 id2408 + 121.51871054305 id2409
      + 256.517003195284 id2410 + 152.589022788508 id2411
      + 158.220651430258 id2412 + 131.612885179004 id2413
      + 107.700686883554 id2414 + 154.361893516121 id2415
      + 153.358735178284 id2416 + 155.92658576016 id2417
      + 265.125112151676 id2418 + 163.635211217992 id2419
      + 201.562972335942 id2420 + 112.971860621324 id2421
      + 152.908100904207 id2422 + 151.154226340246 id2423
      + 144.353169096321 id2424 + 196.886552986537 id2425
      + 208.365203406607 id2426 + 219.606643383741 id2427
      + 120.131305809759 id2428 + 269.541117223916 id2429
      + 200.002702280172 id2430 + 192.258528161942 id2431
      + 215.738585383054 id2432 + 184.250087007864 id2433
      + 149.118597144939 id2434 + 111.74898739503 id2435
      + 144.043022333327 id2436 + 192.925777790305 id2437
      + 175.272221496437 id2438 + 211.669884947709 id2439
      + 198.505928980435 id2440 + 192.897803956691 id2441
      + 195.45403096167 id2442 + 197.672810057228 id2443
      + 105.045006715505 id2444 + 157.453133648504 id2445
      + 159.263495898481 id2446 + 164.165920778445 id2447
      + 193.672810057228 id2448 + 198.371096845976 id2449
      + 143.599002286605 id2450 + 119.027307575818 id2451
      + 156.795561828821 id2452 + 132.287763227331 id2453
      + 99.1584555485101 id2454 + 160.600164774706 id2455
      + 124.737181439376 id2456 + 159.557392229438 id2457
      + 147.048033790657 id2458 + 154.068586925517 id2459
      + 155.465657416713 id2460 + 173.055549340047 id2461
      + 116.184517795091 id2462 + 156.662631713718 id2463
      + 165.474418811162 id2464 + 210.725558827612 id2465
      + 110.110218628978 id2466 + 117.423084444107 id2467
      + 198.786363971115 id2468 + 222.433581514376 id2469
      + 156.090736921884 id2470 + 144.36892528425 id2471
      + 142.302719845636 id2472 + 169.106686805168 id2473
      + 152.71123742745 id2474 + 148.239554825843 id2475
      + 153.089747603429 id2476 + 121.113449983226 id2477
      + 138.344165704176 id2478 + 119.027307575818 id2479
      + 95.3465798971695 id2480 + 190.955412076269 id2481
      + 116.134613360041 id2482 + 131.12473806121 id2483
      + 143.683022279519 id2484 + 143.321210247064 id2485
      + 126.098375387683 id2486 + 148.325356942419 id2487
      + 144.072302285204 id2488 + 174.138822377599 id2489
      + 184.41629241162 id2490 + 136.708196658894 id2491
      + 94.871848418406 id2492 + 202.09569815776 id2493
      + 220.890077856111 id2494 + 166.800452527696 id2495
      + 182.85403292036 id2496 + 171.388665967958 id2497
      + 145.781416035464 id2498 + 96.4866836112715 id2499
      + 95.2148898047277 id2500 + 92.2995578313226 id2501
      + 95.9325363909628 id2502 + 163.134581679398 id2503
      + 132.579832672963 id2504 + 119.133545735916 id2505
      + 118.946419955967 id2506 + 102.871848418406 id2507
      + 197.879323448955 id2508 + 141.323422064574 id2509
      + 125.353444218648 id2510 + 88.6840081640516 id2511
      + 97.5347494350467 id2512 + 160.090006052677 id2513
      + 147.898710018369 id2514 + 87.2075539460885 id2515
      + 87.0758638536467 id2516 + 133.489883150976 id2517
      + 160.429802990149 id2518 + 113.23571695387 id2519
      + 133.104568981178 id2520 + 140.175636793043 id2521
      + 186.844898586958 id2522 + 93.5418253130476 id2523
      + 133.184396113493 id2524 + 96.0305574442414 id2525
      + 103.616716504081 id2526 + 106.610048588869 id2527
      + 96.2995578313226 id2528 + 197.600084955947 id2529
      + 173.140249964006 id2530 + 96.2995578313226 id2531
      + 173.140249964006 id2532
Subject To
 id3:    id53 + id2355 + id2356 + id2358 + id2360 + id2361 + id2364 + id2366
         + id2368 + id2369 + id2374 + id2375 + id2378 + id2380 + id2382
         + id2384 + id2385 + id2389 + id2397 + id2401 + id2402 + id2403
         + id2413 + id2417 + id2420 + id2421 + id2436 + id2437 + id2445
         + id2446 + id2447 + id2459 + id2466 + id2471 + id2474 + id2478
         + id2485 + id2496 + id2508 + id2512 + id2514 + id2522 + id2525
         + id2526 + id2527 + id2529  = 1
 id5:    id54 + id2358 + id2362 + id2365 + id2366 + id2369 + id2373 + id2376
         + id2380 + id2381 + id2386 + id2388 + id2390 + id2391 + id2392
         + id2394 + id2398 + id2399 + id2403 + id2406 + id2407 + id2408
         + id2413 + id2416 + id2421 + id2469 + id2473 + id2475 + id2480
         + id2500 + id2512 + id2515 + id2516 + id2517 + id2518 + id2527  = 1
 id7:    id55 + id2355 + id2356 + id2357 + id2358 + id2359 + id2360 + id2361
         + id2364 + id2366 + id2368 + id2373 + id2375 + id2380 + id2383
         + id2385 + id2391 + id2393 + id2397 + id2399 + id2421 + id2423
         + id2429 + id2430 + id2433 + id2436 + id2439 + id2440 + id2446
         + id2447 + id2459 + id2466 + id2471 + id2474 + id2475 + id2484
         + id2485 + id2493 + id2500 + id2508 + id2512 + id2516 + id2522
         + id2525 + id2526  = 1
 id9:    id56 + id2361 + id2364 + id2366 + id2368 + id2369 + id2375 + id2378
         + id2380 + id2382 + id2383 + id2384 + id2385 + id2387 + id2388
         + id2397 + id2399 + id2401 + id2402 + id2403 + id2413 + id2420
         + id2421 + id2433 + id2434 + id2436 + id2437 + id2439 + id2445
         + id2446 + id2453 + id2459 + id2466 + id2471 + id2472 + id2478
         + id2480 + id2484 + id2493 + id2496 + id2497 + id2500 + id2508
         + id2509 + id2512 + id2514 + id2522 + id2525 + id2526 + id2527
         + id2529  = 1
 id11:   id57 + id2354 + id2358 + id2362 + id2365 + id2366 + id2373 + id2376
         + id2378 + id2383 + id2386 + id2387 + id2388 + id2390 + id2391
         + id2393 + id2398 + id2399 + id2402 + id2403 + id2407 + id2410
         + id2416 + id2418 + id2419 + id2421 + id2422 + id2429 + id2452
         + id2466 + id2473 + id2475 + id2480 + id2500 + id2511 + id2515
         + id2516 + id2517 + id2518 + id2526 + id2527  = 1
 id13:   id58 + id2355 + id2356 + id2357 + id2358 + id2359 + id2360 + id2361
         + id2363 + id2366 + id2368 + id2373 + id2378 + id2381 + id2383
         + id2384 + id2388 + id2391 + id2397 + id2398 + id2401 + id2403
         + id2410 + id2413 + id2416 + id2421 + id2423 + id2429 + id2433
         + id2436 + id2439 + id2447 + id2459 + id2466 + id2468 + id2469
         + id2471 + id2472 + id2473 + id2474 + id2475 + id2478 + id2480
         + id2481 + id2483 + id2484 + id2485 + id2490 + id2493 + id2494
         + id2495 + id2496 + id2497 + id2500 + id2504 + id2508 + id2509
         + id2510 + id2511 + id2512 + id2514 + id2515 + id2516 + id2517
         + id2518 + id2519 + id2520 + id2521 + id2522 + id2524 + id2525
         + id2526 + id2527 + id2529 + id2530 + id2532  = 1
 id15:   id59 + id2355 + id2356 + id2357 + id2358 + id2359 + id2360 + id2361
         + id2363 + id2364 + id2366 + id2369 + id2370 + id2373 + id2375
         + id2376 + id2381 + id2387 + id2388 + id2392 + id2393 + id2397
         + id2398 + id2401 + id2402 + id2407 + id2416 + id2421 + id2429
         + id2430 + id2437 + id2439 + id2440 + id2446 + id2447 + id2453
         + id2459 + id2468 + id2472 + id2474 + id2481 + id2483 + id2494
         + id2497 + id2509 + id2510 + id2511 + id2512 + id2517 + id2518
         + id2519 + id2520 + id2521 + id2522 + id2524 + id2525 + id2527
         + id2530 + id2532  = 1
 id17:   id60 + id2355 + id2356 + id2357 + id2358 + id2359 + id2360 + id2361
         + id2363 + id2364 + id2365 + id2369 + id2370 + id2375 + id2380
         + id2381 + id2383 + id2384 + id2387 + id2388 + id2391 + id2393
         + id2398 + id2399 + id2401 + id2410 + id2413 + id2416 + id2421
         + id2423 + id2430 + id2433 + id2436 + id2437 + id2439 + id2440
         + id2446 + id2447 + id2453 + id2466 + id2468 + id2471 + id2480
         + id2483 + id2484 + id2485 + id2493 + id2496 + id2508 + id2511
         + id2512 + id2515 + id2517 + id2518 + id2525 + id2527  = 1
 id19:   id61 + id2356 + id2357 + id2363 + id2365 + id2367 + id2368 + id2369
         + id2370 + id2372 + id2373 + id2376 + id2381 + id2384 + id2385
         + id2390 + id2393 + id2398 + id2400 + id2401 + id2402 + id2404
         + id2405 + id2406 + id2407 + id2408 + id2410 + id2411 + id2412
         + id2414 + id2415 + id2416 + id2422 + id2423 + id2425 + id2428
         + id2434 + id2437 + id2438 + id2439 + id2440 + id2441 + id2442
         + id2443 + id2444 + id2445 + id2446 + id2447 + id2448 + id2451
         + id2452 + id2454 + id2455 + id2456 + id2457 + id2458 + id2459
         + id2463 + id2464 + id2465 + id2467 + id2469 + id2472 + id2473
         + id2474 + id2476 + id2477 + id2479 + id2486 + id2490 + id2493
         + id2494 + id2495 + id2496 + id2504 + id2508 + id2509 + id2510
         + id2513 + id2514 + id2517 + id2518 + id2519 + id2520 + id2521
         + id2524 + id2529 + id2530 + id2532  = 1
 id21:   id62 + id2363 + id2365 + id2367 + id2373 + id2374 + id2376 + id2379
         + id2381 + id2383 + id2385 + id2388 + id2393 + id2395 + id2398
         + id2402 + id2408 + id2410 + id2411 + id2414 + id2415 + id2416
         + id2417 + id2419 + id2420 + id2428 + id2429 + id2430 + id2434
         + id2435 + id2438 + id2440 + id2441 + id2442 + id2443 + id2444
         + id2452 + id2454 + id2455 + id2456 + id2458 + id2462 + id2463
         + id2464 + id2465 + id2467 + id2475 + id2477 + id2479 + id2486
         + id2489 + id2494 + id2513 + id2517 + id2518 + id2519 + id2520
         + id2521  = 1
 id23:   id63 + id2371 + id2377 + id2378 + id2379 + id2380 + id2381 + id2382
         + id2383 + id2385 + id2386 + id2387 + id2390 + id2394 + id2397
         + id2400 + id2404 + id2405 + id2406 + id2407 + id2410 + id2411
         + id2412 + id2413 + id2414 + id2417 + id2419 + id2422 + id2423
         + id2425 + id2426 + id2427 + id2428 + id2431 + id2432 + id2433
         + id2434 + id2435 + id2437 + id2440 + id2445 + id2447 + id2449
         + id2450 + id2451 + id2453 + id2454 + id2456 + id2468 + id2470
         + id2471 + id2472 + id2474 + id2476 + id2477 + id2478 + id2479
         + id2481 + id2483 + id2484 + id2485 + id2486 + id2488 + id2489
         + id2490 + id2491 + id2493 + id2494 + id2497 + id2498 + id2503
         + id2504 + id2508 + id2509 + id2510 + id2513 + id2514 + id2522
         + id2524 + id2529 + id2530 + id2532  = 1
 id25:   id64 + id2356 + id2357 + id2358 + id2362 + id2363 + id2364 + id2367
         + id2372 + id2377 + id2379 + id2384 + id2387 + id2390 + id2394
         + id2396 + id2397 + id2402 + id2404 + id2405 + id2406 + id2408
         + id2411 + id2412 + id2413 + id2414 + id2418 + id2419 + id2422
         + id2428 + id2433 + id2436 + id2437 + id2439 + id2440 + id2441
         + id2442 + id2443 + id2444 + id2446 + id2447 + id2448 + id2449
         + id2450 + id2451 + id2452 + id2453 + id2454 + id2456 + id2460
         + id2461 + id2462 + id2468 + id2469 + id2470 + id2471 + id2472
         + id2474 + id2476 + id2477 + id2478 + id2479 + id2481 + id2483
         + id2484 + id2485 + id2486 + id2487 + id2489 + id2491 + id2493
         + id2494 + id2497 + id2503 + id2504 + id2510 + id2522  = 1
 id27:   id65 + id2354 + id2355 + id2356 + id2357 + id2359 + id2360 + id2363
         + id2365 + id2367 + id2368 + id2370 + id2373 + id2374 + id2375
         + id2376 + id2379 + id2383 + id2388 + id2389 + id2391 + id2393
         + id2396 + id2398 + id2399 + id2400 + id2402 + id2403 + id2407
         + id2408 + id2410 + id2411 + id2414 + id2417 + id2418 + id2419
         + id2420 + id2424 + id2425 + id2426 + id2427 + id2428 + id2430
         + id2431 + id2432 + id2435 + id2438 + id2439 + id2445 + id2448
         + id2449 + id2451 + id2452 + id2455 + id2456 + id2458 + id2462
         + id2463 + id2464 + id2465 + id2467 + id2475 + id2477 + id2486
         + id2489 + id2494 + id2513 + id2518 + id2521  = 1
 id29:   id66 + id2354 + id2355 + id2356 + id2357 + id2358 + id2359 + id2363
         + id2367 + id2369 + id2370 + id2371 + id2372 + id2380 + id2387
         + id2390 + id2397 + id2400 + id2401 + id2405 + id2408 + id2410
         + id2414 + id2417 + id2422 + id2423 + id2427 + id2429 + id2430
         + id2431 + id2432 + id2433 + id2434 + id2435 + id2436 + id2437
         + id2438 + id2439 + id2440 + id2441 + id2442 + id2443 + id2444
         + id2445 + id2446 + id2447 + id2448 + id2449 + id2450 + id2451
         + id2452 + id2453 + id2454 + id2456 + id2457 + id2458 + id2459
         + id2460 + id2461 + id2462 + id2464 + id2465 + id2467 + id2468
         + id2469 + id2470 + id2471 + id2472 + id2474 + id2476 + id2477
         + id2478 + id2479 + id2481 + id2483 + id2484 + id2485 + id2486
         + id2487 + id2488 + id2491 + id2498 + id2503 + id2504 + id2509
         + id2510 + id2514 + id2524  = 1
 id31:   id67 + id2354 + id2355 + id2356 + id2357 + id2358 + id2359 + id2360
         + id2362 + id2368 + id2369 + id2370 + id2373 + id2374 + id2377
         + id2380 + id2381 + id2385 + id2387 + id2400 + id2401 + id2408
         + id2411 + id2412 + id2414 + id2418 + id2419 + id2423 + id2425
         + id2426 + id2427 + id2428 + id2429 + id2430 + id2431 + id2432
         + id2433 + id2434 + id2435 + id2446 + id2451 + id2454 + id2457
         + id2458 + id2459 + id2460 + id2461 + id2462 + id2464 + id2465
         + id2467 + id2468 + id2469 + id2470 + id2471 + id2472 + id2474
         + id2476 + id2477 + id2478 + id2479 + id2481 + id2483 + id2484
         + id2485 + id2486 + id2487 + id2488 + id2490 + id2498 + id2509
         + id2514 + id2524  = 1
 id33:   id68 + id2354 + id2355 + id2356 + id2357 + id2358 + id2363 + id2364
         + id2365 + id2368 + id2372 + id2374 + id2379 + id2382 + id2385
         + id2386 + id2396 + id2397 + id2401 + id2404 + id2407 + id2408
         + id2417 + id2418 + id2419 + id2422 + id2423 + id2425 + id2426
         + id2427 + id2428 + id2430 + id2434 + id2435 + id2436 + id2438
         + id2439 + id2445 + id2446 + id2447 + id2451 + id2452 + id2453
         + id2454 + id2456 + id2457 + id2458 + id2459 + id2460 + id2461
         + id2462 + id2464 + id2465 + id2467 + id2478 + id2479 + id2481
         + id2483 + id2484 + id2485 + id2486 + id2487 + id2488 + id2489
         + id2490 + id2498 + id2504 + id2509 + id2514 + id2524 + id2529  = 1
 id35:   id69 + id2354 + id2355 + id2356 + id2360 + id2361 + id2364 + id2365
         + id2366 + id2373 + id2374 + id2379 + id2380 + id2387 + id2388
         + id2391 + id2395 + id2396 + id2399 + id2402 + id2403 + id2407
         + id2408 + id2410 + id2411 + id2415 + id2416 + id2417 + id2418
         + id2419 + id2420 + id2422 + id2424 + id2425 + id2426 + id2427
         + id2428 + id2429 + id2430 + id2431 + id2432 + id2433 + id2434
         + id2435 + id2437 + id2438 + id2439 + id2440 + id2441 + id2442
         + id2443 + id2444 + id2445 + id2448 + id2449 + id2451 + id2455
         + id2456 + id2462 + id2463 + id2465 + id2467 + id2475 + id2477
         + id2479 + id2486 + id2489 + id2513 + id2518 + id2520 + id2521  = 1
 id37:   id70 + id2354 + id2355 + id2359 + id2360 + id2361 + id2362 + id2367
         + id2372 + id2376 + id2377 + id2382 + id2389 + id2392 + id2394
         + id2395 + id2396 + id2400 + id2405 + id2406 + id2409 + id2415
         + id2418 + id2426 + id2427 + id2432 + id2442 + id2443 + id2449
         + id2455 + id2461 + id2465 + id2470 + id2499 + id2503 + id2505
         + id2506 + id2507 + id2531  = 1
 id39:   id71 + id2362 + id2367 + id2370 + id2371 + id2372 + id2374 + id2375
         + id2382 + id2384 + id2386 + id2389 + id2392 + id2395 + id2400
         + id2404 + id2405 + id2406 + id2409 + id2412 + id2415 + id2418
         + id2424 + id2426 + id2431 + id2441 + id2442 + id2448 + id2450
         + id2455 + id2457 + id2460 + id2482 + id2488 + id2495 + id2499
         + id2502 + id2505  = 1
 id41:   id72 + id2354 + id2357 + id2359 + id2362 + id2363 + id2365 + id2367
         + id2370 + id2372 + id2374 + id2378 + id2379 + id2381 + id2386
         + id2389 + id2390 + id2391 + id2392 + id2393 + id2394 + id2395
         + id2398 + id2404 + id2409 + id2420 + id2425 + id2427 + id2431
         + id2457 + id2458 + id2460 + id2464 + id2468 + id2469 + id2470
         + id2473 + id2476 + id2481 + id2482 + id2491 + id2492 + id2499
         + id2501 + id2503 + id2505 + id2506 + id2507 + id2528 + id2531  = 1
 id43:   id73 + id2354 + id2355 + id2359 + id2360 + id2361 + id2362 + id2364
         + id2368 + id2370 + id2371 + id2375 + id2376 + id2379 + id2382
         + id2389 + id2394 + id2395 + id2396 + id2400 + id2409 + id2418
         + id2424 + id2426 + id2432 + id2441 + id2442 + id2443 + id2448
         + id2449 + id2455 + id2463 + id2465 + id2491 + id2499 + id2502
         + id2506  = 1
 id45:   id74 + id2371 + id2372 + id2375 + id2376 + id2377 + id2378 + id2379
         + id2389 + id2390 + id2391 + id2392 + id2394 + id2395 + id2396
         + id2404 + id2405 + id2409 + id2412 + id2415 + id2420 + id2425
         + id2431 + id2432 + id2441 + id2443 + id2448 + id2457 + id2460
         + id2461 + id2463 + id2465 + id2468 + id2469 + id2470 + id2473
         + id2476 + id2481 + id2482 + id2488 + id2495 + id2501 + id2507
         + id2528  = 1
 id47:   id75 + id2354 + id2359 + id2360 + id2361 + id2364 + id2367 + id2368
         + id2370 + id2371 + id2374 + id2377 + id2384 + id2386 + id2389
         + id2392 + id2394 + id2395 + id2396 + id2400 + id2409 + id2415
         + id2420 + id2424 + id2427 + id2443 + id2448 + id2449 + id2450
         + id2455 + id2460 + id2461 + id2463 + id2470 + id2482 + id2487
         + id2488 + id2489 + id2490 + id2491 + id2492 + id2493 + id2494
         + id2495 + id2496 + id2497 + id2498 + id2499 + id2501 + id2502
         + id2503 + id2505 + id2506 + id2507 + id2508 + id2513 + id2522
         + id2523 + id2528 + id2529 + id2530 + id2531 + id2532  = 1
 id49:   id76 + id2354 + id2355 + id2357 + id2359 + id2360 + id2362 + id2363
         + id2365 + id2367 + id2369 + id2371 + id2377 + id2378 + id2382
         + id2386 + id2390 + id2391 + id2392 + id2393 + id2396 + id2398
         + id2404 + id2405 + id2406 + id2409 + id2411 + id2429 + id2431
         + id2432 + id2438 + id2450 + id2457 + id2458 + id2460 + id2468
         + id2470 + id2473 + id2487 + id2492 + id2498 + id2502 + id2505
         + id2506 + id2507 + id2523 + id2528  = 1
 id51:   id77 + id2354 + id2357 + id2359 + id2362 + id2363 + id2365 + id2366
         + id2369 + id2370 + id2371 + id2372 + id2377 + id2389 + id2396
         + id2398 + id2406 + id2409 + id2410 + id2412 + id2418 + id2424
         + id2425 + id2426 + id2427 + id2429 + id2432 + id2438 + id2449
         + id2450 + id2457 + id2461 + id2464 + id2469 + id2476 + id2482
         + id2487 + id2498 + id2502 + id2503 + id2505 + id2506 + id2523  = 1
 id2352: id53 <= 1
 id2533: id54 <= 1
 id2536: id55 <= 1
 id2539: id56 <= 1
 id2542: id57 <= 1
 id2545: id58 <= 1
 id2548: id59 <= 1
 id2551: id60 <= 1
 id2554: id61 <= 1
 id2557: id62 <= 1
 id2560: id63 <= 1
 id2563: id64 <= 1
 id2566: id65 <= 1
 id2569: id66 <= 1
 id2572: id67 <= 1
 id2575: id68 <= 1
 id2578: id69 <= 1
 id2581: id70 <= 1
 id2584: id71 <= 1
 id2587: id72 <= 1
 id2590: id73 <= 1
 id2593: id74 <= 1
 id2596: id75 <= 1
 id2599: id76 <= 1
 id2602: id77 <= 1
 id2605: id2354 <= 1
 id2608: id2355 <= 1
 id2611: id2356 <= 1
 id2614: id2357 <= 1
 id2617: id2358 <= 1
 id2620: id2359 <= 1
 id2623: id2360 <= 1
 id2626: id2361 <= 1
 id2629: id2362 <= 1
 id2632: id2363 <= 1
 id2635: id2364 <= 1
 id2638: id2365 <= 1
 id2641: id2366 <= 1
 id2644: id2367 <= 1
 id2647: id2368 <= 1
 id2650: id2369 <= 1
 id2653: id2370 <= 1
 id2656: id2371 <= 1
 id2659: id2372 <= 1
 id2662: id2373 <= 1
 id2665: id2374 <= 1
 id2668: id2375 <= 1
 id2671: id2376 <= 1
 id2674: id2377 <= 1
 id2677: id2378 <= 1
 id2680: id2379 <= 1
 id2683: id2380 <= 1
 id2686: id2381 <= 1
 id2689: id2382 <= 1
 id2692: id2383 <= 1
 id2695: id2384 <= 1
 id2698: id2385 <= 1
 id2701: id2386 <= 1
 id2704: id2387 <= 1
 id2707: id2388 <= 1
 id2710: id2389 <= 1
 id2713: id2390 <= 1
 id2716: id2391 <= 1
 id2719: id2392 <= 1
 id2722: id2393 <= 1
 id2725: id2394 <= 1
 id2728: id2395 <= 1
 id2731: id2396 <= 1
 id2734: id2397 <= 1
 id2737: id2398 <= 1
 id2740: id2399 <= 1
 id2743: id2400 <= 1
 id2746: id2401 <= 1
 id2749: id2402 <= 1
 id2752: id2403 <= 1
 id2755: id2404 <= 1
 id2758: id2405 <= 1
 id2761: id2406 <= 1
 id2764: id2407 <= 1
 id2767: id2408 <= 1
 id2770: id2409 <= 1
 id2773: id2410 <= 1
 id2776: id2411 <= 1
 id2779: id2412 <= 1
 id2782: id2413 <= 1
 id2785: id2414 <= 1
 id2788: id2415 <= 1
 id2791: id2416 <= 1
 id2794: id2417 <= 1
 id2797: id2418 <= 1
 id2800: id2419 <= 1
 id2803: id2420 <= 1
 id2806: id2421 <= 1
 id2809: id2422 <= 1
 id2812: id2423 <= 1
 id2815: id2424 <= 1
 id2818: id2425 <= 1
 id2821: id2426 <= 1
 id2824: id2427 <= 1
 id2827: id2428 <= 1
 id2830: id2429 <= 1
 id2833: id2430 <= 1
 id2836: id2431 <= 1
 id2839: id2432 <= 1
 id2842: id2433 <= 1
 id2845: id2434 <= 1
 id2848: id2435 <= 1
 id2851: id2436 <= 1
 id2854: id2437 <= 1
 id2857: id2438 <= 1
 id2860: id2439 <= 1
 id2863: id2440 <= 1
 id2866: id2441 <= 1
 id2869: id2442 <= 1
 id2872: id2443 <= 1
 id2875: id2444 <= 1
 id2878: id2445 <= 1
 id2881: id2446 <= 1
 id2884: id2447 <= 1
 id2887: id2448 <= 1
 id2890: id2449 <= 1
 id2893: id2450 <= 1
 id2896: id2451 <= 1
 id2899: id2452 <= 1
 id2902: id2453 <= 1
 id2905: id2454 <= 1
 id2908: id2455 <= 1
 id2911: id2456 <= 1
 id2914: id2457 <= 1
 id2917: id2458 <= 1
 id2920: id2459 <= 1
 id2923: id2460 <= 1
 id2926: id2461 <= 1
 id2929: id2462 <= 1
 id2932: id2463 <= 1
 id2935: id2464 <= 1
 id2938: id2465 <= 1
 id2941: id2466 <= 1
 id2944: id2467 <= 1
 id2947: id2468 <= 1
 id2950: id2469 <= 1
 id2953: id2470 <= 1
 id2956: id2471 <= 1
 id2959: id2472 <= 1
 id2962: id2473 <= 1
 id2965: id2474 <= 1
 id2968: id2475 <= 1
 id2971: id2476 <= 1
 id2974: id2477 <= 1
 id2977: id2478 <= 1
 id2980: id2479 <= 1
 id2983: id2480 <= 1
 id2986: id2481 <= 1
 id2989: id2482 <= 1
 id2992: id2483 <= 1
 id2995: id2484 <= 1
 id2998: id2485 <= 1
 id3001: id2486 <= 1
 id3004: id2487 <= 1
 id3007: id2488 <= 1
 id3010: id2489 <= 1
 id3013: id2490 <= 1
 id3016: id2491 <= 1
 id3019: id2492 <= 1
 id3022: id2493 <= 1
 id3025: id2494 <= 1
 id3028: id2495 <= 1
 id3031: id2496 <= 1
 id3034: id2497 <= 1
 id3037: id2498 <= 1
 id3040: id2499 <= 1
 id3043: id2500 <= 1
 id3046: id2501 <= 1
 id3049: id2502 <= 1
 id3052: id2503 <= 1
 id3055: id2504 <= 1
 id3058: id2505 <= 1
 id3061: id2506 <= 1
 id3064: id2507 <= 1
 id3067: id2508 <= 1
 id3070: id2509 <= 1
 id3073: id2510 <= 1
 id3076: id2511 <= 1
 id3079: id2512 <= 1
 id3082: id2513 <= 1
 id3085: id2514 <= 1
 id3088: id2515 <= 1
 id3091: id2516 <= 1
 id3094: id2517 <= 1
 id3097: id2518 <= 1
 id3100: id2519 <= 1
 id3103: id2520 <= 1
 id3106: id2521 <= 1
 id3109: id2522 <= 1
 id3112: id2523 <= 1
 id3115: id2524 <= 1
 id3118: id2525 <= 1
 id3121: id2526 <= 1
 id3124: id2527 <= 1
 id3127: id2528 <= 1
 id3130: id2529 <= 1
 id3133: id2530 <= 1
 id3136: id2531 <= 1
 id3139: id2532 <= 1
Bounds
      id53 >= 0
      id54 >= 0
      id55 >= 0
      id56 >= 0
      id57 >= 0
      id58 >= 0
      id59 >= 0
      id60 >= 0
      id61 >= 0
      id62 >= 0
      id63 >= 0
      id64 >= 0
      id65 >= 0
      id66 >= 0
      id67 >= 0
      id68 >= 0
      id69 >= 0
      id70 >= 0
      id71 >= 0
      id72 >= 0
      id73 >= 0
      id74 >= 0
      id75 >= 0
      id76 >= 0
      id77 >= 0
      id78 = 0
      id2354 >= 0
      id2355 >= 0
      id2356 >= 0
      id2357 >= 0
      id2358 >= 0
      id2359 >= 0
      id2360 >= 0
      id2361 >= 0
      id2362 >= 0
      id2363 >= 0
      id2364 >= 0
      id2365 >= 0
      id2366 >= 0
      id2367 >= 0
      id2368 >= 0
      id2369 >= 0
      id2370 >= 0
      id2371 >= 0
      id2372 >= 0
      id2373 >= 0
      id2374 >= 0
      id2375 >= 0
      id2376 >= 0
      id2377 >= 0
      id2378 >= 0
      id2379 >= 0
      id2380 >= 0
      id2381 >= 0
      id2382 >= 0
      id2383 >= 0
      id2384 >= 0
      id2385 >= 0
      id2386 >= 0
      id2387 >= 0
      id2388 >= 0
      id2389 >= 0
      id2390 >= 0
      id2391 >= 0
      id2392 >= 0
      id2393 >= 0
      id2394 >= 0
      id2395 >= 0
      id2396 >= 0
      id2397 >= 0
      id2398 >= 0
      id2399 >= 0
      id2400 >= 0
      id2401 >= 0
      id2402 >= 0
      id2403 >= 0
      id2404 >= 0
      id2405 >= 0
      id2406 >= 0
      id2407 >= 0
      id2408 >= 0
      id2409 >= 0
      id2410 >= 0
      id2411 >= 0
      id2412 >= 0
      id2413 >= 0
      id2414 >= 0
      id2415 >= 0
      id2416 >= 0
      id2417 >= 0
      id2418 >= 0
      id2419 >= 0
      id2420 >= 0
      id2421 >= 0
      id2422 >= 0
      id2423 >= 0
      id2424 >= 0
      id2425 >= 0
      id2426 >= 0
      id2427 >= 0
      id2428 >= 0
      id2429 >= 0
      id2430 >= 0
      id2431 >= 0
      id2432 >= 0
      id2433 >= 0
      id2434 >= 0
      id2435 >= 0
      id2436 >= 0
      id2437 >= 0
      id2438 >= 0
      id2439 >= 0
      id2440 >= 0
      id2441 >= 0
      id2442 >= 0
      id2443 >= 0
      id2444 >= 0
      id2445 >= 0
      id2446 >= 0
      id2447 >= 0
      id2448 >= 0
      id2449 >= 0
      id2450 >= 0
      id2451 >= 0
      id2452 >= 0
      id2453 >= 0
      id2454 >= 0
      id2455 >= 0
      id2456 >= 0
      id2457 >= 0
      id2458 >= 0
      id2459 >= 0
      id2460 >= 0
      id2461 >= 0
      id2462 >= 0
      id2463 >= 0
      id2464 >= 0
      id2465 >= 0
      id2466 >= 0
      id2467 >= 0
      id2468 >= 0
      id2469 >= 0
      id2470 >= 0
      id2471 >= 0
      id2472 >= 0
      id2473 >= 0
      id2474 >= 0
      id2475 >= 0
      id2476 >= 0
      id2477 >= 0
      id2478 >= 0
      id2479 >= 0
      id2480 >= 0
      id2481 >= 0
      id2482 >= 0
      id2483 >= 0
      id2484 >= 0
      id2485 >= 0
      id2486 >= 0
      id2487 >= 0
      id2488 >= 0
      id2489 >= 0
      id2490 >= 0
      id2491 >= 0
      id2492 >= 0
      id2493 >= 0
      id2494 >= 0
      id2495 >= 0
      id2496 >= 0
      id2497 >= 0
      id2498 >= 0
      id2499 >= 0
      id2500 >= 0
      id2501 >= 0
      id2502 >= 0
      id2503 >= 0
      id2504 >= 0
      id2505 >= 0
      id2506 >= 0
      id2507 >= 0
      id2508 >= 0
      id2509 >= 0
      id2510 >= 0
      id2511 >= 0
      id2512 >= 0
      id2513 >= 0
      id2514 >= 0
      id2515 >= 0
      id2516 >= 0
      id2517 >= 0
      id2518 >= 0
      id2519 >= 0
      id2520 >= 0
      id2521 >= 0
      id2522 >= 0
      id2523 >= 0
      id2524 >= 0
      id2525 >= 0
      id2526 >= 0
      id2527 >= 0
      id2528 >= 0
      id2529 >= 0
      id2530 >= 0
      id2531 >= 0
      id2532 >= 0
Generals
 id53  id54  id55  id56  id57  id58  id59  id60  id61  id62  id63  id64  id65 
 id66  id67  id68  id69  id70  id71  id72  id73  id74  id75  id76  id77 
 id2354  id2355  id2356  id2357  id2358  id2359  id2360  id2361  id2362 
 id2363  id2364  id2365  id2366  id2367  id2368  id2369  id2370  id2371 
 id2372  id2373  id2374  id2375  id2376  id2377  id2378  id2379  id2380 
 id2381  id2382  id2383  id2384  id2385  id2386  id2387  id2388  id2389 
 id2390  id2391  id2392  id2393  id2394  id2395  id2396  id2397  id2398 
 id2399  id2400  id2401  id2402  id2403  id2404  id2405  id2406  id2407 
 id2408  id2409  id2410  id2411  id2412  id2413  id2414  id2415  id2416 
 id2417  id2418  id2419  id2420  id2421  id2422  id2423  id2424  id2425 
 id2426  id2427  id2428  id2429  id2430  id2431  id2432  id2433  id2434 
 id2435  id2436  id2437  id2438  id2439  id2440  id2441  id2442  id2443 
 id2444  id2445  id2446  id2447  id2448  id2449  id2450  id2451  id2452 
 id2453  id2454  id2455  id2456  id2457  id2458  id2459  id2460  id2461 
 id2462  id2463  id2464  id2465  id2466  id2467  id2468  id2469  id2470 
 id2471  id2472  id2473  id2474  id2475  id2476  id2477  id2478  id2479 
 id2480  id2481  id2482  id2483  id2484  id2485  id2486  id2487  id2488 
 id2489  id2490  id2491  id2492  id2493  id2494  id2495  id2496  id2497 
 id2498  id2499  id2500  id2501  id2502  id2503  id2504  id2505  id2506 
 id2507  id2508  id2509  id2510  id2511  id2512  id2513  id2514  id2515 
 id2516  id2517  id2518  id2519  id2520  id2521  id2522  id2523  id2524 
 id2525  id2526  id2527  id2528  id2529  id2530  id2531  id2532 
End
